2 20
612 473 
0 36 38 47 56 90 98 2
1 43 46 90 81 62 8 2
2 86 88 63 59 70 46 1
3 85 93 44 40 95 1 2
4 56 66 23 17 7 1 1
5 27 24 74 78 53 78 2
6 24 19 45 46 29 56 2
7 63 54 93 92 14 69 1
8 7 11 84 78 71 74 1
9 90 100 46 47 39 46 2
10 98 98 47 44 99 49 1
11 86 93 13 4 43 15 2
12 21 26 70 69 17 59 1
13 58 58 8 5 96 18 2
14 83 79 13 13 55 9 2
15 52 59 76 81 66 65 2
16 42 43 19 22 10 70 1
17 51 58 43 53 38 38 1
18 85 83 14 6 57 30 2
19 96 88 48 55 19 93 2
